clingo version 5.4.1
Reading from provaASP22.lp
UNKNOWN

TIME LIMIT   : 1
Models       : 0+
Calls        : 1
Time         : 300.032s (Solving: 0.00s 1st Model: 0.00s Unsat: 0.00s)
CPU Time     : 185.599s
